n_res = 4;
rc = [ 30, 25, 28, 28 ];
n_tasks = 30;
d = [ 4, 6, 2, 7, 2, 5, 9, 8, 1, 8, 10, 10, 7, 10, 4, 8, 2, 4, 9, 10, 8, 9, 9, 2, 1, 8, 9, 3, 4, 2 ];
rr = [| 5, 9, 5, 6, 4, 2, 1, 7, 2, 2, 1, 4, 8, 3, 3, 9, 3, 4, 10, 2, 4, 9, 8, 6, 8, 2, 8, 9, 9, 5
      | 2, 7, 7, 2, 6, 5, 6, 10, 4, 6, 2, 7, 6, 10, 4, 4, 9, 10, 8, 3, 10, 5, 2, 5, 10, 10, 1, 3, 8, 9
      | 4, 10, 6, 2, 5, 9, 5, 7, 7, 8, 1, 1, 3, 9, 10, 10, 3, 4, 7, 10, 4, 4, 10, 6, 2, 6, 8, 6, 2, 5
      | 9, 10, 8, 2, 4, 9, 9, 3, 4, 1, 8, 3, 10, 5, 2, 10, 7, 9, 8, 7, 2, 5, 10, 2, 6, 5, 9, 6, 10, 10 |];
suc = [ { 2 }, 
        { 1 }, 
        { 4 }, 
        { 3 }, 
        { 6 }, 
        { 5 }, 
        { 8 }, 
        { 7 }, 
        { 10 }, 
        { 9 }, 
        { 12 }, 
        { 11 }, 
        { 14 }, 
        { 13 }, 
        { 16 }, 
        { 15 }, 
        { 18 }, 
        { 17 }, 
        { 20 }, 
        { 19 }, 
        { 22 }, 
        { 21 }, 
        { 24 }, 
        { 23 }, 
        { 26 }, 
        { 25 }, 
        { 28 }, 
        { 27 }, 
        { 30 }, 
        { 29 }]; 
